
Gurobi 9.1.2 (linux64, gurobi_cl) logging started Fri Jul 30 13:52:07 2021

Using license file /opt/gurobi/gurobi.lic
Set parameter TimeLimit to value 600
Set parameter MIPFocus to value 3
Set parameter LogFile to value 912-MIPFocus3-Presolve2-glass4-0.log
Set parameter Presolve to value 2

Gurobi Optimizer version 9.1.2 build v9.1.2rc0 (linux64)
Copyright (c) 2021, Gurobi Optimization, LLC

Read MPS format model from file /nfs/models/mip/glass4.mps.bz2
Reading time = 0.00 seconds
glass4: 396 rows, 322 columns, 1815 nonzeros
Thread count: 4 physical cores, 8 logical processors, using up to 8 threads
Optimize a model with 396 rows, 322 columns and 1815 nonzeros
Model fingerprint: 0x0a9d9037
Variable types: 20 continuous, 302 integer (0 binary)
Coefficient statistics:
  Matrix range     [1e+00, 8e+06]
  Objective range  [1e+00, 1e+06]
  Bounds range     [1e+00, 8e+02]
  RHS range        [1e+00, 8e+06]
Presolve removed 6 rows and 6 columns
Presolve time: 0.00s
Presolved: 390 rows, 316 columns, 1803 nonzeros
Variable types: 19 continuous, 297 integer (297 binary)
Found heuristic solution: objective 3.133356e+09
Presolved: 390 rows, 316 columns, 1803 nonzeros


Root relaxation: objective 8.000024e+08, 36 iterations, 0.00 seconds

    Nodes    |    Current Node    |     Objective Bounds      |     Work
 Expl Unexpl |  Obj  Depth IntInf | Incumbent    BestBd   Gap | It/Node Time

     0     0 8.0000e+08    0   72 3.1334e+09 8.0000e+08  74.5%     -    0s
H    0     0                    2.300019e+09 8.0000e+08  65.2%     -    0s
H    0     0                    2.100018e+09 8.0000e+08  61.9%     -    0s
     0     0 8.0000e+08    0   72 2.1000e+09 8.0000e+08  61.9%     -    0s
     0     0 8.0000e+08    0   72 2.1000e+09 8.0000e+08  61.9%     -    0s
     0     1 8.0000e+08    0   72 2.1000e+09 8.0000e+08  61.9%     -    0s
H   27    32                    2.000018e+09 8.0000e+08  60.0%   125    0s
H   30    32                    2.000017e+09 8.0000e+08  60.0%   125    0s
H  135   170                    1.987517e+09 8.0001e+08  59.7%  82.4    0s
H  233   273                    1.937517e+09 8.0001e+08  58.7%  70.0    0s
H  409   381                    1.937517e+09 8.0001e+08  58.7%  61.9    0s
H  433   448                    1.900017e+09 8.0001e+08  57.9%  62.7    0s
H  539   559                    1.875017e+09 8.0001e+08  57.3%  62.7    1s
H  621   628                    1.850017e+09 8.0001e+08  56.8%  63.5    1s
H 1191  1060                    1.850017e+09 9.2157e+08  50.2%  78.1    4s
  1196  1069 9.2223e+08   29  118 1.8500e+09 9.2223e+08  50.2%  78.2    5s
H 1944  1695                    1.833351e+09 1.0000e+09  45.5%  75.0    7s
H 2116  1663                    1.800017e+09 1.0000e+09  44.4%  72.3    7s
  3711  2683 1.0000e+09   28   96 1.8000e+09 1.0000e+09  44.4%  67.2   10s
  5207  4077 1.4333e+09   42   63 1.8000e+09 1.0000e+09  44.4%  69.9   15s
H 5238  3989                    1.750015e+09 1.0000e+09  42.9%  70.0   15s
H 5560  4261                    1.750015e+09 1.0000e+09  42.9%  71.0   19s
H 5564  4151                    1.666681e+09 1.0000e+09  40.0%  71.1   19s
  5568  4269 1.0000e+09   33   91 1.6667e+09 1.0000e+09  40.0%  71.2   20s
  7346  5845 1.0000e+09   31  101 1.6667e+09 1.0000e+09  40.0%  79.3   25s
H 7981  6326                    1.600014e+09 1.0000e+09  37.5%  81.3   27s
  9304  7303 1.0006e+09   47   83 1.6000e+09 1.0000e+09  37.5%  86.5   30s
 11321  8789 1.0126e+09   40   95 1.6000e+09 1.0000e+09  37.5%  94.2   35s
 13616 10525 1.1813e+09   35   83 1.6000e+09 1.0537e+09  34.1%  98.9   41s
 14972 11738 1.2000e+09   38   81 1.6000e+09 1.1000e+09  31.3%   102   45s
 17320 13604 1.1000e+09   32   79 1.6000e+09 1.1000e+09  31.3%   105   51s
 20447 15656 1.1000e+09   38   59 1.6000e+09 1.1000e+09  31.3%   101   56s
 22018 16711 infeasible   69      1.6000e+09 1.1000e+09  31.2%  98.9   61s
 24490 18517 1.1353e+09   49   71 1.6000e+09 1.1353e+09  29.0%  98.4   65s
 27242 20631 1.1539e+09   32   74 1.6000e+09 1.1539e+09  27.9%  97.1   70s
 29586 22164 1.3514e+09   38   66 1.6000e+09 1.1667e+09  27.1%  95.1   75s
 33685 25711 1.2000e+09   41   89 1.6000e+09 1.2000e+09  25.0%  94.4   82s
 36295 27702 infeasible   53      1.6000e+09 1.2000e+09  25.0%  93.5   86s
 40292 30862 1.2000e+09   33   91 1.6000e+09 1.2000e+09  25.0%  91.7   91s
 42291 32577 1.2000e+09   30   91 1.6000e+09 1.2000e+09  25.0%  91.8   95s
 44778 34829 1.5000e+09   41   70 1.6000e+09 1.2000e+09  25.0%  91.1  100s
 49153 38473 1.3000e+09   36  110 1.6000e+09 1.2000e+09  25.0%  89.2  105s
H51518 32096                    1.500013e+09 1.2000e+09  20.0%  87.8  107s
H52657  4809                    1.200013e+09 1.2000e+09  0.00%  87.0  109s

Cutting planes:
  Gomory: 66
  Cover: 74
  Implied bound: 95
  Projected implied bound: 5
  MIR: 98
  Flow cover: 2384
  GUB cover: 1
  RLT: 173
  Relax-and-lift: 1265

Explored 53488 nodes (4633608 simplex iterations) in 109.46 seconds
Thread count was 8 (of 8 available processors)

Solution count 10: 1.20001e+09 1.50001e+09 1.60001e+09 ... 1.85002e+09

Optimal solution found (tolerance 1.00e-04)
Best objective 1.200012600000e+09, best bound 1.200007732370e+09, gap 0.0004%
